instances/shortest_path/discrete/shortest_path_7_7.lp
\ Model nohadani_7_7
\ LP format - for model browsing. Use MPS format to capture full model detail.
\ Signature: 0x917f322750627386
Minimize
  55.00909015790027 y[0,1] + 36.40054944640259 y[0,2]
   + 18.35755975068582 y[0,3] + 52.32590180780452 y[0,4]
   + 38.91015291668744 y[0,5] + 79.20227269466452 y[0,6]
   + 55.00909015790027 y[1,0] + 82.63776376451628 y[1,2]
   + 65.73431371817918 y[1,3] + 80.49844718999243 y[1,5]
   + 49.64876634922564 y[1,6] + 36.40054944640259 y[2,0]
   + 82.63776376451628 y[2,1] + 46.84015371452148 y[2,3]
   + 18.02775637731995 y[2,4] + 7.810249675906654 y[2,5]
   + 18.35755975068582 y[3,0] + 65.73431371817918 y[3,1]
   + 46.84015371452148 y[3,2] + 64.53681120105021 y[3,4]
   + 51.62363799656123 y[3,5] + 52.32590180780452 y[4,0]
   + 18.02775637731995 y[4,2] + 64.53681120105021 y[4,3]
   + 13.41640786499874 y[4,5] + 38.91015291668744 y[5,0]
   + 80.49844718999243 y[5,1] + 7.810249675906654 y[5,2]
   + 51.62363799656123 y[5,3] + 13.41640786499874 y[5,4]
   + 81.04936767180853 y[5,6] + 79.20227269466452 y[6,0]
   + 49.64876634922564 y[6,1] + 81.04936767180853 y[6,5] + x[0,1] + x[0,2]
   + x[0,3] + x[0,4] + x[0,5] + x[0,6] + x[1,0] + x[1,2] + x[1,3] + x[1,5]
   + x[1,6] + x[2,0] + x[2,1] + x[2,3] + x[2,4] + x[2,5] + x[3,0] + x[3,1]
   + x[3,2] + x[3,4] + x[3,5] + x[4,0] + x[4,2] + x[4,3] + x[4,5] + x[5,0]
   + x[5,1] + x[5,2] + x[5,3] + x[5,4] + x[5,6] + x[6,0] + x[6,1] + x[6,5]
   + 5.500909015790027 r[0,1] + 3.640054944640259 r[0,2]
   + 1.835755975068582 r[0,3] + 5.232590180780452 r[0,4]
   + 3.891015291668744 r[0,5] + 7.920227269466452 r[0,6]
   + 5.500909015790027 r[1,0] + 8.263776376451629 r[1,2]
   + 6.573431371817918 r[1,3] + 8.049844718999244 r[1,5]
   + 4.964876634922565 r[1,6] + 3.640054944640259 r[2,0]
   + 8.263776376451629 r[2,1] + 4.684015371452148 r[2,3]
   + 1.802775637731995 r[2,4] + 0.7810249675906654 r[2,5]
   + 1.835755975068582 r[3,0] + 6.573431371817918 r[3,1]
   + 4.684015371452148 r[3,2] + 6.453681120105021 r[3,4]
   + 5.162363799656124 r[3,5] + 5.232590180780452 r[4,0]
   + 1.802775637731995 r[4,2] + 6.453681120105021 r[4,3]
   + 1.341640786499874 r[4,5] + 3.891015291668744 r[5,0]
   + 8.049844718999244 r[5,1] + 0.7810249675906654 r[5,2]
   + 5.162363799656124 r[5,3] + 1.341640786499874 r[5,4]
   + 8.104936767180853 r[5,6] + 7.920227269466452 r[6,0]
   + 4.964876634922565 r[6,1] + 8.104936767180853 r[6,5]
Subject To
 flow_cons_inner_nodes[0]: - y[0,1] - y[0,2] - y[0,3] - y[0,4] - y[0,5]
   - y[0,6] + y[1,0] + y[2,0] + y[3,0] + y[4,0] + y[5,0] + y[6,0] = 0
 flow_cons_inner_nodes[1]: y[0,1] - y[1,0] - y[1,2] - y[1,3] - y[1,5]
   - y[1,6] + y[2,1] + y[3,1] + y[5,1] + y[6,1] = 0
 flow_cons_inner_nodes[2]: y[0,2] + y[1,2] - y[2,0] - y[2,1] - y[2,3]
   - y[2,4] - y[2,5] + y[3,2] + y[4,2] + y[5,2] = 0
 flow_cons_inner_nodes[4]: y[0,4] + y[2,4] + y[3,4] - y[4,0] - y[4,2]
   - y[4,3] - y[4,5] + y[5,4] = 0
 flow_cons_inner_nodes[5]: y[0,5] + y[1,5] + y[2,5] + y[3,5] + y[4,5]
   - y[5,0] - y[5,1] - y[5,2] - y[5,3] - y[5,4] - y[5,6] + y[6,5] = 0
 flow_cons_source: - y[0,3] - y[1,3] - y[2,3] + y[3,0] + y[3,1] + y[3,2]
   + y[3,4] + y[3,5] - y[4,3] - y[5,3] = 1
 flow_cons_target: y[0,6] + y[1,6] + y[5,6] - y[6,0] - y[6,1] - y[6,5] = 1
 primal_lower: 3.158230664693184 x[0,1] + 3.083637923800897 x[0,2]
   + 2.98642983807658 x[0,3] + 0.6427756920961594 x[0,4]
   + 4.017356551941861 x[0,5] + 2.075202152509992 x[0,6]
   + 4.263661707785326 x[1,0] + 0.52385882896465 x[1,2]
   + 4.300194705541758 x[1,3] + 3.9047404684707 x[1,5]
   + 3.954029216700922 x[1,6] + 3.784728053799448 x[2,0]
   + 1.463105007540271 x[2,1] + 2.055440738108995 x[2,3]
   + 0.6418036219948702 x[2,4] + 0.4230339435768477 x[2,5]
   + 4.013527586189387 x[3,0] + 1.554878698939062 x[3,1]
   + 3.075028927792072 x[3,2] + 2.13473255791595 x[3,4]
   + 3.849502576349552 x[3,5] + 3.224802467865447 x[4,0]
   + 1.389717868374046 x[4,2] + 0.4122317597854333 x[4,3]
   + 0.8569904832953563 x[4,5] + 3.78934582766512 x[5,0]
   + 3.959883289756889 x[5,1] + 0.6343589120802124 x[5,2]
   + 0.2187851801084616 x[5,3] + 3.310730984256025 x[5,4]
   + 0.0780563181646359 x[5,6] + 0.4095949659970227 x[6,0]
   + 3.981427401710055 x[6,1] + 2.403121210291535 x[6,5] + 82 u[0,1]
   + 71 u[0,2] + 9 u[0,3] + 74 u[0,4] + 15 u[0,5] + 56 u[0,6] + 60 u[1,0]
   + 94 u[1,2] + 76 u[1,3] + u[1,5] + 2 u[1,6] + 82 u[2,0] + 55 u[2,1]
   + 71 u[2,3] + 31 u[2,4] + 31 u[2,5] + 44 u[3,0] + 87 u[3,1] + 24 u[3,2]
   + 57 u[3,4] + 28 u[3,5] + 42 u[4,0] + 59 u[4,2] + u[4,3] + 19 u[4,5]
   + 59 u[5,0] + 69 u[5,1] + 86 u[5,2] + 100 u[5,3] + 74 u[5,4] + 20 u[5,6]
   + 66 u[6,0] + 2 u[6,1] + 4 u[6,5] <= 150
 mccormick1[0,1]: - u[0,1] + r[0,1] <= 0
 mccormick1[0,2]: - u[0,2] + r[0,2] <= 0
 mccormick1[0,3]: - u[0,3] + r[0,3] <= 0
 mccormick1[0,4]: - u[0,4] + r[0,4] <= 0
 mccormick1[0,5]: - u[0,5] + r[0,5] <= 0
 mccormick1[0,6]: - u[0,6] + r[0,6] <= 0
 mccormick1[1,0]: - u[1,0] + r[1,0] <= 0
 mccormick1[1,2]: - u[1,2] + r[1,2] <= 0
 mccormick1[1,3]: - u[1,3] + r[1,3] <= 0
 mccormick1[1,5]: - u[1,5] + r[1,5] <= 0
 mccormick1[1,6]: - u[1,6] + r[1,6] <= 0
 mccormick1[2,0]: - u[2,0] + r[2,0] <= 0
 mccormick1[2,1]: - u[2,1] + r[2,1] <= 0
 mccormick1[2,3]: - u[2,3] + r[2,3] <= 0
 mccormick1[2,4]: - u[2,4] + r[2,4] <= 0
 mccormick1[2,5]: - u[2,5] + r[2,5] <= 0
 mccormick1[3,0]: - u[3,0] + r[3,0] <= 0
 mccormick1[3,1]: - u[3,1] + r[3,1] <= 0
 mccormick1[3,2]: - u[3,2] + r[3,2] <= 0
 mccormick1[3,4]: - u[3,4] + r[3,4] <= 0
 mccormick1[3,5]: - u[3,5] + r[3,5] <= 0
 mccormick1[4,0]: - u[4,0] + r[4,0] <= 0
 mccormick1[4,2]: - u[4,2] + r[4,2] <= 0
 mccormick1[4,3]: - u[4,3] + r[4,3] <= 0
 mccormick1[4,5]: - u[4,5] + r[4,5] <= 0
 mccormick1[5,0]: - u[5,0] + r[5,0] <= 0
 mccormick1[5,1]: - u[5,1] + r[5,1] <= 0
 mccormick1[5,2]: - u[5,2] + r[5,2] <= 0
 mccormick1[5,3]: - u[5,3] + r[5,3] <= 0
 mccormick1[5,4]: - u[5,4] + r[5,4] <= 0
 mccormick1[5,6]: - u[5,6] + r[5,6] <= 0
 mccormick1[6,0]: - u[6,0] + r[6,0] <= 0
 mccormick1[6,1]: - u[6,1] + r[6,1] <= 0
 mccormick1[6,5]: - u[6,5] + r[6,5] <= 0
 mccormick2[0,1]: - y[0,1] + r[0,1] <= 0
 mccormick2[0,2]: - y[0,2] + r[0,2] <= 0
 mccormick2[0,3]: - y[0,3] + r[0,3] <= 0
 mccormick2[0,4]: - y[0,4] + r[0,4] <= 0
 mccormick2[0,5]: - y[0,5] + r[0,5] <= 0
 mccormick2[0,6]: - y[0,6] + r[0,6] <= 0
 mccormick2[1,0]: - y[1,0] + r[1,0] <= 0
 mccormick2[1,2]: - y[1,2] + r[1,2] <= 0
 mccormick2[1,3]: - y[1,3] + r[1,3] <= 0
 mccormick2[1,5]: - y[1,5] + r[1,5] <= 0
 mccormick2[1,6]: - y[1,6] + r[1,6] <= 0
 mccormick2[2,0]: - y[2,0] + r[2,0] <= 0
 mccormick2[2,1]: - y[2,1] + r[2,1] <= 0
 mccormick2[2,3]: - y[2,3] + r[2,3] <= 0
 mccormick2[2,4]: - y[2,4] + r[2,4] <= 0
 mccormick2[2,5]: - y[2,5] + r[2,5] <= 0
 mccormick2[3,0]: - y[3,0] + r[3,0] <= 0
 mccormick2[3,1]: - y[3,1] + r[3,1] <= 0
 mccormick2[3,2]: - y[3,2] + r[3,2] <= 0
 mccormick2[3,4]: - y[3,4] + r[3,4] <= 0
 mccormick2[3,5]: - y[3,5] + r[3,5] <= 0
 mccormick2[4,0]: - y[4,0] + r[4,0] <= 0
 mccormick2[4,2]: - y[4,2] + r[4,2] <= 0
 mccormick2[4,3]: - y[4,3] + r[4,3] <= 0
 mccormick2[4,5]: - y[4,5] + r[4,5] <= 0
 mccormick2[5,0]: - y[5,0] + r[5,0] <= 0
 mccormick2[5,1]: - y[5,1] + r[5,1] <= 0
 mccormick2[5,2]: - y[5,2] + r[5,2] <= 0
 mccormick2[5,3]: - y[5,3] + r[5,3] <= 0
 mccormick2[5,4]: - y[5,4] + r[5,4] <= 0
 mccormick2[5,6]: - y[5,6] + r[5,6] <= 0
 mccormick2[6,0]: - y[6,0] + r[6,0] <= 0
 mccormick2[6,1]: - y[6,1] + r[6,1] <= 0
 mccormick2[6,5]: - y[6,5] + r[6,5] <= 0
 mccormick3[0,1]: - y[0,1] - u[0,1] + r[0,1] >= -1
 mccormick3[0,2]: - y[0,2] - u[0,2] + r[0,2] >= -1
 mccormick3[0,3]: - y[0,3] - u[0,3] + r[0,3] >= -1
 mccormick3[0,4]: - y[0,4] - u[0,4] + r[0,4] >= -1
 mccormick3[0,5]: - y[0,5] - u[0,5] + r[0,5] >= -1
 mccormick3[0,6]: - y[0,6] - u[0,6] + r[0,6] >= -1
 mccormick3[1,0]: - y[1,0] - u[1,0] + r[1,0] >= -1
 mccormick3[1,2]: - y[1,2] - u[1,2] + r[1,2] >= -1
 mccormick3[1,3]: - y[1,3] - u[1,3] + r[1,3] >= -1
 mccormick3[1,5]: - y[1,5] - u[1,5] + r[1,5] >= -1
 mccormick3[1,6]: - y[1,6] - u[1,6] + r[1,6] >= -1
 mccormick3[2,0]: - y[2,0] - u[2,0] + r[2,0] >= -1
 mccormick3[2,1]: - y[2,1] - u[2,1] + r[2,1] >= -1
 mccormick3[2,3]: - y[2,3] - u[2,3] + r[2,3] >= -1
 mccormick3[2,4]: - y[2,4] - u[2,4] + r[2,4] >= -1
 mccormick3[2,5]: - y[2,5] - u[2,5] + r[2,5] >= -1
 mccormick3[3,0]: - y[3,0] - u[3,0] + r[3,0] >= -1
 mccormick3[3,1]: - y[3,1] - u[3,1] + r[3,1] >= -1
 mccormick3[3,2]: - y[3,2] - u[3,2] + r[3,2] >= -1
 mccormick3[3,4]: - y[3,4] - u[3,4] + r[3,4] >= -1
 mccormick3[3,5]: - y[3,5] - u[3,5] + r[3,5] >= -1
 mccormick3[4,0]: - y[4,0] - u[4,0] + r[4,0] >= -1
 mccormick3[4,2]: - y[4,2] - u[4,2] + r[4,2] >= -1
 mccormick3[4,3]: - y[4,3] - u[4,3] + r[4,3] >= -1
 mccormick3[4,5]: - y[4,5] - u[4,5] + r[4,5] >= -1
 mccormick3[5,0]: - y[5,0] - u[5,0] + r[5,0] >= -1
 mccormick3[5,1]: - y[5,1] - u[5,1] + r[5,1] >= -1
 mccormick3[5,2]: - y[5,2] - u[5,2] + r[5,2] >= -1
 mccormick3[5,3]: - y[5,3] - u[5,3] + r[5,3] >= -1
 mccormick3[5,4]: - y[5,4] - u[5,4] + r[5,4] >= -1
 mccormick3[5,6]: - y[5,6] - u[5,6] + r[5,6] >= -1
 mccormick3[6,0]: - y[6,0] - u[6,0] + r[6,0] >= -1
 mccormick3[6,1]: - y[6,1] - u[6,1] + r[6,1] >= -1
 mccormick3[6,5]: - y[6,5] - u[6,5] + r[6,5] >= -1
Bounds
Binaries
 y[0,1] y[0,2] y[0,3] y[0,4] y[0,5] y[0,6] y[1,0] y[1,2] y[1,3] y[1,5]
 y[1,6] y[2,0] y[2,1] y[2,3] y[2,4] y[2,5] y[3,0] y[3,1] y[3,2] y[3,4]
 y[3,5] y[4,0] y[4,2] y[4,3] y[4,5] y[5,0] y[5,1] y[5,2] y[5,3] y[5,4]
 y[5,6] y[6,0] y[6,1] y[6,5] x[0,1] x[0,2] x[0,3] x[0,4] x[0,5] x[0,6]
 x[1,0] x[1,2] x[1,3] x[1,5] x[1,6] x[2,0] x[2,1] x[2,3] x[2,4] x[2,5]
 x[3,0] x[3,1] x[3,2] x[3,4] x[3,5] x[4,0] x[4,2] x[4,3] x[4,5] x[5,0]
 x[5,1] x[5,2] x[5,3] x[5,4] x[5,6] x[6,0] x[6,1] x[6,5] u[0,1] u[0,2]
 u[0,3] u[0,4] u[0,5] u[0,6] u[1,0] u[1,2] u[1,3] u[1,5] u[1,6] u[2,0]
 u[2,1] u[2,3] u[2,4] u[2,5] u[3,0] u[3,1] u[3,2] u[3,4] u[3,5] u[4,0]
 u[4,2] u[4,3] u[4,5] u[5,0] u[5,1] u[5,2] u[5,3] u[5,4] u[5,6] u[6,0]
 u[6,1] u[6,5] r[0,1] r[0,2] r[0,3] r[0,4] r[0,5] r[0,6] r[1,0] r[1,2]
 r[1,3] r[1,5] r[1,6] r[2,0] r[2,1] r[2,3] r[2,4] r[2,5] r[3,0] r[3,1]
 r[3,2] r[3,4] r[3,5] r[4,0] r[4,2] r[4,3] r[4,5] r[5,0] r[5,1] r[5,2]
 r[5,3] r[5,4] r[5,6] r[6,0] r[6,1] r[6,5]
End
