instances/shortest_path/discrete/shortest_path_7_7.kp
13947
150

[3.1582306646931837 3.0836379238008966 2.9864298380765804 0.6427756920961594 4.0173565519418615 2.075202152509992 4.263661707785326 0.52385882896465 4.300194705541758 3.9047404684707 3.954029216700922 3.7847280537994483 1.4631050075402714 2.0554407381089947 0.6418036219948702 0.4230339435768477 4.013527586189387 1.554878698939062 3.075028927792072 2.1347325579159504 3.849502576349552 3.224802467865447 1.389717868374046 0.4122317597854333 0.8569904832953563 3.78934582766512 3.959883289756889 0.6343589120802124 0.2187851801084616 3.3107309842560246 0.07805631816463586 0.40959496599702266 3.9814274017100546 2.403121210291535]

[82 71 9 74 15 56 60 94 76 1 2 82 55 71 31 31 44 87 24 57 28 42 59 1 19 59 69 86 100 74 20 66 2 4]
